Maximize
  - 1.1497388627235 edge_0_3_0_0 - 3.0896168960979 edge_0_8_0_0
   - 0.7733057250868002 edge_0_9_0_0 - 1.7169085636462 edge_0_11_0_0
   - 0.9701283978908 edge_0_24_0_0 + 0.8128474819242041 edge_2_4_0_0
   + 0.0719385364667401 edge_2_6_0_0 - 0.8862936140317603 edge_2_8_0_0
   - 0.6693190589669251 edge_2_11_0_0 - 0.7234162188228064 edge_2_13_0_0
   + 0.3702798570059306 edge_2_14_0_0 + 0.1934752676403436 edge_2_16_0_0
   + 0.00184840428176958 edge_2_17_0_0 + 0.0459143913853553 edge_2_18_0_0
   - 0.1208510283780069 edge_2_22_0_0 - 0.0699193387257987 edge_2_23_0_0
   + 0.3788561401138479 edge_2_24_0_0 - 0.61208146357334 edge_2_26_0_0
   + 3.01319651008738 edge_3_2_0_0 + 0.5521779336103758 edge_3_4_0_0
   + 0.2466147998568168 edge_3_6_0_0 + 0.6041275755085662 edge_3_8_0_0
   + 0.5771212695287378 edge_3_9_0_0 + 1.140815318166752 edge_3_11_0_0
   + 1.080286482139707 edge_3_13_0_0 + 1.546359957826722 edge_3_14_0_0
   + 0.4159105779247024 edge_3_16_0_0 + 0.7741054826665218 edge_3_17_0_0
   + 0.2740829384197423 edge_3_18_0_0 - 0.2104326667867777 edge_3_22_0_0
   + 0.0784306583330063 edge_3_23_0_0 + 0.3062410360953213 edge_3_24_0_0
   - 0.4613924888169663 edge_3_25_0_0 - 0.3171175731009245 edge_3_26_0_0
   + 1.347980350608243 edge_3_27_0_0 - 0.4192509671129837 edge_4_2_0_0
   - 0.1546526968121406 edge_6_2_0_0 - 0.0319241998649227 edge_6_3_0_0
   + 0.0274244298237565 edge_6_4_0_0 - 0.2059614681533053 edge_6_8_0_0
   - 0.0814453809439267 edge_6_9_0_0 - 0.1154168050793262 edge_6_11_0_0
   - 0.0334082784099274 edge_6_14_0_0 - 0.00293596867258065 edge_6_16_0_0
   - 0.1316877359917146 edge_6_17_0_0 - 0.0724186096793367 edge_6_18_0_0
   - 0.0942776575624978 edge_6_24_0_0 - 0.0734118093923123 edge_6_27_0_0
   - 0.5885972367872307 edge_8_3_0_0 + 0.4219936678445917 edge_8_9_0_0
   + 0.2240689575125122 edge_8_11_0_0 - 0.2221097332549152 edge_8_13_0_0
   - 0.4643258260062222 edge_8_14_0_0 - 0.0589741053919866 edge_9_2_0_0
   + 0.3859624085766051 edge_9_3_0_0 + 0.0251228167318848 edge_9_4_0_0
   - 0.1265961770785267 edge_9_6_0_0 + 1.469826674609813 edge_9_8_0_0
   + 1.7235824548997 edge_9_11_0_0 + 1.288615509937791 edge_9_13_0_0
   + 0.4698464475247431 edge_9_14_0_0 + 0.00130613448276115 edge_9_16_0_0
   + 0.0417492335287411 edge_9_17_0_0 - 0.3412408200826301 edge_9_18_0_0
   - 0.1675639829673875 edge_9_24_0_0 + 0.6739863331865915 edge_9_27_0_0
   + 0.0952277215834201 edge_11_2_0_0 + 0.7070575940423369 edge_11_3_0_0
   - 0.5812003871245368 edge_11_4_0_0 - 0.1956825578189323 edge_11_6_0_0
   + 0.9736775244092137 edge_11_8_0_0 + 0.0776818157640244 edge_11_9_0_0
   + 3.27331572064632 edge_11_13_0_0 + 0.2225855574972752 edge_11_14_0_0
   - 0.5030623223003613 edge_11_16_0_0 - 0.1515280610679462 edge_11_17_0_0
   - 1.196808726879059 edge_11_22_0_0 - 0.1675798140487461 edge_11_23_0_0
   - 0.3811402989149224 edge_11_24_0_0 + 0.6160839329437392 edge_11_27_0_0
   + 0.6730020171348334 edge_13_2_0_0 + 0.6918733519315646 edge_13_3_0_0
   - 0.2747323395054131 edge_13_4_0_0 - 0.5451918560797339 edge_13_8_0_0
   - 0.261807266613919 edge_13_9_0_0 + 0.1871225386668998 edge_13_11_0_0
   + 0.2998161044509162 edge_13_14_0_0 - 0.3619146283743136 edge_13_16_0_0
   - 0.9810511427634384 edge_13_23_0_0 + 0.1482633681350713 edge_13_24_0_0
   + 0.3410838764861415 edge_13_27_0_0 + 0.0447372115364975 edge_14_3_0_0
   - 0.6926634211387834 edge_14_13_0_0 - 0.0250192060978373 edge_16_6_0_0
   - 0.6058244349351249 edge_17_2_0_0 + 0.1779345358178179 edge_17_4_0_0
   + 0.1787903501416249 edge_17_6_0_0 - 0.3034052713680059 edge_17_9_0_0
   - 0.5459039164907171 edge_17_11_0_0 - 0.0810299084402853 edge_17_14_0_0
   + 0.890227012428094 edge_17_16_0_0 + 0.9204707308442415 edge_17_18_0_0
   + 0.2065340975158305 edge_17_22_0_0 + 0.0877480971372383 edge_17_23_0_0
   + 0.151779512372744 edge_17_24_0_0 - 0.262803300483352 edge_17_25_0_0
   - 0.028378714265312 edge_17_26_0_0 + 0.3862933027800159 edge_17_27_0_0
   - 0.266626022556117 edge_18_17_0_0 - 0.5597294098567021 edge_18_22_0_0
   + 0.1435691526195873 edge_22_17_0_0 + 0.2910470340562482 edge_22_18_0_0
   + 0.2904306872699409 edge_22_23_0_0 - 0.2693117334154094 edge_22_25_0_0
   - 0.5082832208274149 edge_22_26_0_0 - 0.3373893616639295 edge_23_2_0_0
   - 0.3002930877104047 edge_23_4_0_0 + 0.0875364787801671 edge_23_6_0_0
   + 0.0809455234373695 edge_23_16_0_0 + 0.00375612958940564 edge_23_17_0_0
   + 0.2496212265573603 edge_23_18_0_0 + 1.861495780411115 edge_23_22_0_0
   + 0.3312365597090967 edge_23_24_0_0 + 0.1343393927633776 edge_23_25_0_0
   + 0.3886959103565641 edge_23_26_0_0 + 0.2070613990892348 edge_23_27_0_0
   + 0.1039936666498542 edge_24_2_0_0 + 0.449326408353285 edge_24_3_0_0
   + 0.3412035895878168 edge_24_4_0_0 + 0.4351762202246197 edge_24_6_0_0
   - 0.3504678985596967 edge_24_8_0_0 + 0.0957780619412241 edge_24_9_0_0
   + 0.1857506916142533 edge_24_11_0_0 - 0.1495378119068317 edge_24_13_0_0
   + 0.3189391400007646 edge_24_14_0_0 + 0.4675569739332676 edge_24_16_0_0
   + 0.3339174252491198 edge_24_17_0_0 + 0.6436405320270716 edge_24_18_0_0
   + 1.056752311934542 edge_24_22_0_0 + 0.6759521519848307 edge_24_23_0_0
   + 0.7760973021273018 edge_24_25_0_0 + 1.367564191471544 edge_24_26_0_0
   + 0.4485436111008289 edge_24_27_0_0 + 0.3721008652984268 edge_25_26_0_0
   - 0.2470153504025616 edge_25_27_0_0 + 0.00537780049619095 edge_26_6_0_0
   - 0.0713633359047996 edge_26_18_0_0 + 0.8890851670603968 edge_26_22_0_0
   - 0.1254135382513873 edge_26_23_0_0 + 3.25177297550801 edge_26_25_0_0
   + 0.4396849767857399 edge_26_27_0_0 - 0.113933341787003 edge_27_25_0_0
   - 0.3091840667887749 edge_27_26_0_0
Subject To
 one_parent_1: = 1
 consume_one_flow_unit_1: = 1
 one_parent_2: edge_3_2_0_0 + edge_4_2_0_0 + edge_6_2_0_0 + edge_9_2_0_0
   + edge_11_2_0_0 + edge_13_2_0_0 + edge_17_2_0_0 + edge_23_2_0_0
   + edge_24_2_0_0 = 1
 consume_one_flow_unit_2: - flow_2_4_0_0 - flow_2_6_0_0 - flow_2_8_0_0
   - flow_2_11_0_0 - flow_2_13_0_0 - flow_2_14_0_0 - flow_2_16_0_0
   - flow_2_17_0_0 - flow_2_18_0_0 - flow_2_22_0_0 - flow_2_23_0_0
   - flow_2_24_0_0 - flow_2_26_0_0 + flow_3_2_0_0 + flow_4_2_0_0
   + flow_6_2_0_0 + flow_9_2_0_0 + flow_11_2_0_0 + flow_13_2_0_0
   + flow_17_2_0_0 + flow_23_2_0_0 + flow_24_2_0_0 = 1
 one_parent_3: edge_0_3_0_0 + edge_6_3_0_0 + edge_8_3_0_0 + edge_9_3_0_0
   + edge_11_3_0_0 + edge_13_3_0_0 + edge_14_3_0_0 + edge_24_3_0_0 = 1
 consume_one_flow_unit_3: flow_0_3_0_0 - flow_3_2_0_0 - flow_3_4_0_0
   - flow_3_6_0_0 - flow_3_8_0_0 - flow_3_9_0_0 - flow_3_11_0_0
   - flow_3_13_0_0 - flow_3_14_0_0 - flow_3_16_0_0 - flow_3_17_0_0
   - flow_3_18_0_0 - flow_3_22_0_0 - flow_3_23_0_0 - flow_3_24_0_0
   - flow_3_25_0_0 - flow_3_26_0_0 - flow_3_27_0_0 + flow_6_3_0_0
   + flow_8_3_0_0 + flow_9_3_0_0 + flow_11_3_0_0 + flow_13_3_0_0
   + flow_14_3_0_0 + flow_24_3_0_0 = 1
 one_parent_4: edge_2_4_0_0 + edge_3_4_0_0 + edge_6_4_0_0 + edge_9_4_0_0
   + edge_11_4_0_0 + edge_13_4_0_0 + edge_17_4_0_0 + edge_23_4_0_0
   + edge_24_4_0_0 = 1
 consume_one_flow_unit_4: flow_2_4_0_0 + flow_3_4_0_0 - flow_4_2_0_0
   + flow_6_4_0_0 + flow_9_4_0_0 + flow_11_4_0_0 + flow_13_4_0_0
   + flow_17_4_0_0 + flow_23_4_0_0 + flow_24_4_0_0 = 1
 one_parent_5: = 1
 consume_one_flow_unit_5: = 1
 one_parent_6: edge_2_6_0_0 + edge_3_6_0_0 + edge_9_6_0_0 + edge_11_6_0_0
   + edge_16_6_0_0 + edge_17_6_0_0 + edge_23_6_0_0 + edge_24_6_0_0
   + edge_26_6_0_0 = 1
 consume_one_flow_unit_6: flow_2_6_0_0 + flow_3_6_0_0 - flow_6_2_0_0
   - flow_6_3_0_0 - flow_6_4_0_0 - flow_6_8_0_0 - flow_6_9_0_0
   - flow_6_11_0_0 - flow_6_14_0_0 - flow_6_16_0_0 - flow_6_17_0_0
   - flow_6_18_0_0 - flow_6_24_0_0 - flow_6_27_0_0 + flow_9_6_0_0
   + flow_11_6_0_0 + flow_16_6_0_0 + flow_17_6_0_0 + flow_23_6_0_0
   + flow_24_6_0_0 + flow_26_6_0_0 = 1
 one_parent_7: = 1
 consume_one_flow_unit_7: = 1
 one_parent_8: edge_0_8_0_0 + edge_2_8_0_0 + edge_3_8_0_0 + edge_6_8_0_0
   + edge_9_8_0_0 + edge_11_8_0_0 + edge_13_8_0_0 + edge_24_8_0_0 = 1
 consume_one_flow_unit_8: flow_0_8_0_0 + flow_2_8_0_0 + flow_3_8_0_0
   + flow_6_8_0_0 - flow_8_3_0_0 - flow_8_9_0_0 - flow_8_11_0_0
   - flow_8_13_0_0 - flow_8_14_0_0 + flow_9_8_0_0 + flow_11_8_0_0
   + flow_13_8_0_0 + flow_24_8_0_0 = 1
 one_parent_9: edge_0_9_0_0 + edge_3_9_0_0 + edge_6_9_0_0 + edge_8_9_0_0
   + edge_11_9_0_0 + edge_13_9_0_0 + edge_17_9_0_0 + edge_24_9_0_0 = 1
 consume_one_flow_unit_9: flow_0_9_0_0 + flow_3_9_0_0 + flow_6_9_0_0
   + flow_8_9_0_0 - flow_9_2_0_0 - flow_9_3_0_0 - flow_9_4_0_0
   - flow_9_6_0_0 - flow_9_8_0_0 - flow_9_11_0_0 - flow_9_13_0_0
   - flow_9_14_0_0 - flow_9_16_0_0 - flow_9_17_0_0 - flow_9_18_0_0
   - flow_9_24_0_0 - flow_9_27_0_0 + flow_11_9_0_0 + flow_13_9_0_0
   + flow_17_9_0_0 + flow_24_9_0_0 = 1
 one_parent_10: = 1
 consume_one_flow_unit_10: = 1
 one_parent_11: edge_0_11_0_0 + edge_2_11_0_0 + edge_3_11_0_0
   + edge_6_11_0_0 + edge_8_11_0_0 + edge_9_11_0_0 + edge_13_11_0_0
   + edge_17_11_0_0 + edge_24_11_0_0 = 1
 consume_one_flow_unit_11: flow_0_11_0_0 + flow_2_11_0_0 + flow_3_11_0_0
   + flow_6_11_0_0 + flow_8_11_0_0 + flow_9_11_0_0 - flow_11_2_0_0
   - flow_11_3_0_0 - flow_11_4_0_0 - flow_11_6_0_0 - flow_11_8_0_0
   - flow_11_9_0_0 - flow_11_13_0_0 - flow_11_14_0_0 - flow_11_16_0_0
   - flow_11_17_0_0 - flow_11_22_0_0 - flow_11_23_0_0 - flow_11_24_0_0
   - flow_11_27_0_0 + flow_13_11_0_0 + flow_17_11_0_0 + flow_24_11_0_0 = 1
 one_parent_12: = 1
 consume_one_flow_unit_12: = 1
 one_parent_13: edge_2_13_0_0 + edge_3_13_0_0 + edge_8_13_0_0
   + edge_9_13_0_0 + edge_11_13_0_0 + edge_14_13_0_0 + edge_24_13_0_0 = 1
 consume_one_flow_unit_13: flow_2_13_0_0 + flow_3_13_0_0 + flow_8_13_0_0
   + flow_9_13_0_0 + flow_11_13_0_0 - flow_13_2_0_0 - flow_13_3_0_0
   - flow_13_4_0_0 - flow_13_8_0_0 - flow_13_9_0_0 - flow_13_11_0_0
   - flow_13_14_0_0 - flow_13_16_0_0 - flow_13_23_0_0 - flow_13_24_0_0
   - flow_13_27_0_0 + flow_14_13_0_0 + flow_24_13_0_0 = 1
 one_parent_14: edge_2_14_0_0 + edge_3_14_0_0 + edge_6_14_0_0
   + edge_8_14_0_0 + edge_9_14_0_0 + edge_11_14_0_0 + edge_13_14_0_0
   + edge_17_14_0_0 + edge_24_14_0_0 = 1
 consume_one_flow_unit_14: flow_2_14_0_0 + flow_3_14_0_0 + flow_6_14_0_0
   + flow_8_14_0_0 + flow_9_14_0_0 + flow_11_14_0_0 + flow_13_14_0_0
   - flow_14_3_0_0 - flow_14_13_0_0 + flow_17_14_0_0 + flow_24_14_0_0 = 1
 one_parent_15: = 1
 consume_one_flow_unit_15: = 1
 one_parent_16: edge_2_16_0_0 + edge_3_16_0_0 + edge_6_16_0_0
   + edge_9_16_0_0 + edge_11_16_0_0 + edge_13_16_0_0 + edge_17_16_0_0
   + edge_23_16_0_0 + edge_24_16_0_0 = 1
 consume_one_flow_unit_16: flow_2_16_0_0 + flow_3_16_0_0 + flow_6_16_0_0
   + flow_9_16_0_0 + flow_11_16_0_0 + flow_13_16_0_0 - flow_16_6_0_0
   + flow_17_16_0_0 + flow_23_16_0_0 + flow_24_16_0_0 = 1
 one_parent_17: edge_2_17_0_0 + edge_3_17_0_0 + edge_6_17_0_0
   + edge_9_17_0_0 + edge_11_17_0_0 + edge_18_17_0_0 + edge_22_17_0_0
   + edge_23_17_0_0 + edge_24_17_0_0 = 1
 consume_one_flow_unit_17: flow_2_17_0_0 + flow_3_17_0_0 + flow_6_17_0_0
   + flow_9_17_0_0 + flow_11_17_0_0 - flow_17_2_0_0 - flow_17_4_0_0
   - flow_17_6_0_0 - flow_17_9_0_0 - flow_17_11_0_0 - flow_17_14_0_0
   - flow_17_16_0_0 - flow_17_18_0_0 - flow_17_22_0_0 - flow_17_23_0_0
   - flow_17_24_0_0 - flow_17_25_0_0 - flow_17_26_0_0 - flow_17_27_0_0
   + flow_18_17_0_0 + flow_22_17_0_0 + flow_23_17_0_0 + flow_24_17_0_0 = 1
 one_parent_18: edge_2_18_0_0 + edge_3_18_0_0 + edge_6_18_0_0
   + edge_9_18_0_0 + edge_17_18_0_0 + edge_22_18_0_0 + edge_23_18_0_0
   + edge_24_18_0_0 + edge_26_18_0_0 = 1
 consume_one_flow_unit_18: flow_2_18_0_0 + flow_3_18_0_0 + flow_6_18_0_0
   + flow_9_18_0_0 + flow_17_18_0_0 - flow_18_17_0_0 - flow_18_22_0_0
   + flow_22_18_0_0 + flow_23_18_0_0 + flow_24_18_0_0 + flow_26_18_0_0 = 1
 one_parent_19: = 1
 consume_one_flow_unit_19: = 1
 one_parent_20: = 1
 consume_one_flow_unit_20: = 1
 one_parent_21: = 1
 consume_one_flow_unit_21: = 1
 one_parent_22: edge_2_22_0_0 + edge_3_22_0_0 + edge_11_22_0_0
   + edge_17_22_0_0 + edge_18_22_0_0 + edge_23_22_0_0 + edge_24_22_0_0
   + edge_26_22_0_0 = 1
 consume_one_flow_unit_22: flow_2_22_0_0 + flow_3_22_0_0 + flow_11_22_0_0
   + flow_17_22_0_0 + flow_18_22_0_0 - flow_22_17_0_0 - flow_22_18_0_0
   - flow_22_23_0_0 - flow_22_25_0_0 - flow_22_26_0_0 + flow_23_22_0_0
   + flow_24_22_0_0 + flow_26_22_0_0 = 1
 one_parent_23: edge_2_23_0_0 + edge_3_23_0_0 + edge_11_23_0_0
   + edge_13_23_0_0 + edge_17_23_0_0 + edge_22_23_0_0 + edge_24_23_0_0
   + edge_26_23_0_0 = 1
 consume_one_flow_unit_23: flow_2_23_0_0 + flow_3_23_0_0 + flow_11_23_0_0
   + flow_13_23_0_0 + flow_17_23_0_0 + flow_22_23_0_0 - flow_23_2_0_0
   - flow_23_4_0_0 - flow_23_6_0_0 - flow_23_16_0_0 - flow_23_17_0_0
   - flow_23_18_0_0 - flow_23_22_0_0 - flow_23_24_0_0 - flow_23_25_0_0
   - flow_23_26_0_0 - flow_23_27_0_0 + flow_24_23_0_0 + flow_26_23_0_0 = 1
 one_parent_24: edge_0_24_0_0 + edge_2_24_0_0 + edge_3_24_0_0
   + edge_6_24_0_0 + edge_9_24_0_0 + edge_11_24_0_0 + edge_13_24_0_0
   + edge_17_24_0_0 + edge_23_24_0_0 = 1
 consume_one_flow_unit_24: flow_0_24_0_0 + flow_2_24_0_0 + flow_3_24_0_0
   + flow_6_24_0_0 + flow_9_24_0_0 + flow_11_24_0_0 + flow_13_24_0_0
   + flow_17_24_0_0 + flow_23_24_0_0 - flow_24_2_0_0 - flow_24_3_0_0
   - flow_24_4_0_0 - flow_24_6_0_0 - flow_24_8_0_0 - flow_24_9_0_0
   - flow_24_11_0_0 - flow_24_13_0_0 - flow_24_14_0_0 - flow_24_16_0_0
   - flow_24_17_0_0 - flow_24_18_0_0 - flow_24_22_0_0 - flow_24_23_0_0
   - flow_24_25_0_0 - flow_24_26_0_0 - flow_24_27_0_0 = 1
 one_parent_25: edge_3_25_0_0 + edge_17_25_0_0 + edge_22_25_0_0
   + edge_23_25_0_0 + edge_24_25_0_0 + edge_26_25_0_0 + edge_27_25_0_0 = 1
 consume_one_flow_unit_25: flow_3_25_0_0 + flow_17_25_0_0 + flow_22_25_0_0
   + flow_23_25_0_0 + flow_24_25_0_0 - flow_25_26_0_0 - flow_25_27_0_0
   + flow_26_25_0_0 + flow_27_25_0_0 = 1
 one_parent_26: edge_2_26_0_0 + edge_3_26_0_0 + edge_17_26_0_0
   + edge_22_26_0_0 + edge_23_26_0_0 + edge_24_26_0_0 + edge_25_26_0_0
   + edge_27_26_0_0 = 1
 consume_one_flow_unit_26: flow_2_26_0_0 + flow_3_26_0_0 + flow_17_26_0_0
   + flow_22_26_0_0 + flow_23_26_0_0 + flow_24_26_0_0 + flow_25_26_0_0
   - flow_26_6_0_0 - flow_26_18_0_0 - flow_26_22_0_0 - flow_26_23_0_0
   - flow_26_25_0_0 - flow_26_27_0_0 + flow_27_26_0_0 = 1
 one_parent_27: edge_3_27_0_0 + edge_6_27_0_0 + edge_9_27_0_0
   + edge_11_27_0_0 + edge_13_27_0_0 + edge_17_27_0_0 + edge_23_27_0_0
   + edge_24_27_0_0 + edge_25_27_0_0 + edge_26_27_0_0 = 1
 consume_one_flow_unit_27: flow_3_27_0_0 + flow_6_27_0_0 + flow_9_27_0_0
   + flow_11_27_0_0 + flow_13_27_0_0 + flow_17_27_0_0 + flow_23_27_0_0
   + flow_24_27_0_0 + flow_25_27_0_0 + flow_26_27_0_0 - flow_27_25_0_0
   - flow_27_26_0_0 = 1
 root_flow: flow_0_3_0_0 + flow_0_8_0_0 + flow_0_9_0_0 + flow_0_11_0_0
   + flow_0_24_0_0 = 27
 inactive_no_flow_0_3_0_0: flow_0_3_0_0 - 1000 edge_0_3_0_0 <= 0
 inactive_no_flow_0_8_0_0: flow_0_8_0_0 - 1000 edge_0_8_0_0 <= 0
 inactive_no_flow_0_9_0_0: flow_0_9_0_0 - 1000 edge_0_9_0_0 <= 0
 inactive_no_flow_0_11_0_0: flow_0_11_0_0 - 1000 edge_0_11_0_0 <= 0
 inactive_no_flow_0_24_0_0: flow_0_24_0_0 - 1000 edge_0_24_0_0 <= 0
 inactive_no_flow_2_4_0_0: flow_2_4_0_0 - 1000 edge_2_4_0_0 <= 0
 inactive_no_flow_2_6_0_0: flow_2_6_0_0 - 1000 edge_2_6_0_0 <= 0
 inactive_no_flow_2_8_0_0: flow_2_8_0_0 - 1000 edge_2_8_0_0 <= 0
 inactive_no_flow_2_11_0_0: flow_2_11_0_0 - 1000 edge_2_11_0_0 <= 0
 inactive_no_flow_2_13_0_0: flow_2_13_0_0 - 1000 edge_2_13_0_0 <= 0
 inactive_no_flow_2_14_0_0: flow_2_14_0_0 - 1000 edge_2_14_0_0 <= 0
 inactive_no_flow_2_16_0_0: flow_2_16_0_0 - 1000 edge_2_16_0_0 <= 0
 inactive_no_flow_2_17_0_0: flow_2_17_0_0 - 1000 edge_2_17_0_0 <= 0
 inactive_no_flow_2_18_0_0: flow_2_18_0_0 - 1000 edge_2_18_0_0 <= 0
 inactive_no_flow_2_22_0_0: flow_2_22_0_0 - 1000 edge_2_22_0_0 <= 0
 inactive_no_flow_2_23_0_0: flow_2_23_0_0 - 1000 edge_2_23_0_0 <= 0
 inactive_no_flow_2_24_0_0: flow_2_24_0_0 - 1000 edge_2_24_0_0 <= 0
 inactive_no_flow_2_26_0_0: flow_2_26_0_0 - 1000 edge_2_26_0_0 <= 0
 inactive_no_flow_3_2_0_0: flow_3_2_0_0 - 1000 edge_3_2_0_0 <= 0
 inactive_no_flow_3_4_0_0: flow_3_4_0_0 - 1000 edge_3_4_0_0 <= 0
 inactive_no_flow_3_6_0_0: flow_3_6_0_0 - 1000 edge_3_6_0_0 <= 0
 inactive_no_flow_3_8_0_0: flow_3_8_0_0 - 1000 edge_3_8_0_0 <= 0
 inactive_no_flow_3_9_0_0: flow_3_9_0_0 - 1000 edge_3_9_0_0 <= 0
 inactive_no_flow_3_11_0_0: flow_3_11_0_0 - 1000 edge_3_11_0_0 <= 0
 inactive_no_flow_3_13_0_0: flow_3_13_0_0 - 1000 edge_3_13_0_0 <= 0
 inactive_no_flow_3_14_0_0: flow_3_14_0_0 - 1000 edge_3_14_0_0 <= 0
 inactive_no_flow_3_16_0_0: flow_3_16_0_0 - 1000 edge_3_16_0_0 <= 0
 inactive_no_flow_3_17_0_0: flow_3_17_0_0 - 1000 edge_3_17_0_0 <= 0
 inactive_no_flow_3_18_0_0: flow_3_18_0_0 - 1000 edge_3_18_0_0 <= 0
 inactive_no_flow_3_22_0_0: flow_3_22_0_0 - 1000 edge_3_22_0_0 <= 0
 inactive_no_flow_3_23_0_0: flow_3_23_0_0 - 1000 edge_3_23_0_0 <= 0
 inactive_no_flow_3_24_0_0: flow_3_24_0_0 - 1000 edge_3_24_0_0 <= 0
 inactive_no_flow_3_25_0_0: flow_3_25_0_0 - 1000 edge_3_25_0_0 <= 0
 inactive_no_flow_3_26_0_0: flow_3_26_0_0 - 1000 edge_3_26_0_0 <= 0
 inactive_no_flow_3_27_0_0: flow_3_27_0_0 - 1000 edge_3_27_0_0 <= 0
 inactive_no_flow_4_2_0_0: flow_4_2_0_0 - 1000 edge_4_2_0_0 <= 0
 inactive_no_flow_6_2_0_0: flow_6_2_0_0 - 1000 edge_6_2_0_0 <= 0
 inactive_no_flow_6_3_0_0: flow_6_3_0_0 - 1000 edge_6_3_0_0 <= 0
 inactive_no_flow_6_4_0_0: flow_6_4_0_0 - 1000 edge_6_4_0_0 <= 0
 inactive_no_flow_6_8_0_0: flow_6_8_0_0 - 1000 edge_6_8_0_0 <= 0
 inactive_no_flow_6_9_0_0: flow_6_9_0_0 - 1000 edge_6_9_0_0 <= 0
 inactive_no_flow_6_11_0_0: flow_6_11_0_0 - 1000 edge_6_11_0_0 <= 0
 inactive_no_flow_6_14_0_0: flow_6_14_0_0 - 1000 edge_6_14_0_0 <= 0
 inactive_no_flow_6_16_0_0: flow_6_16_0_0 - 1000 edge_6_16_0_0 <= 0
 inactive_no_flow_6_17_0_0: flow_6_17_0_0 - 1000 edge_6_17_0_0 <= 0
 inactive_no_flow_6_18_0_0: flow_6_18_0_0 - 1000 edge_6_18_0_0 <= 0
 inactive_no_flow_6_24_0_0: flow_6_24_0_0 - 1000 edge_6_24_0_0 <= 0
 inactive_no_flow_6_27_0_0: flow_6_27_0_0 - 1000 edge_6_27_0_0 <= 0
 inactive_no_flow_8_3_0_0: flow_8_3_0_0 - 1000 edge_8_3_0_0 <= 0
 inactive_no_flow_8_9_0_0: flow_8_9_0_0 - 1000 edge_8_9_0_0 <= 0
 inactive_no_flow_8_11_0_0: flow_8_11_0_0 - 1000 edge_8_11_0_0 <= 0
 inactive_no_flow_8_13_0_0: flow_8_13_0_0 - 1000 edge_8_13_0_0 <= 0
 inactive_no_flow_8_14_0_0: flow_8_14_0_0 - 1000 edge_8_14_0_0 <= 0
 inactive_no_flow_9_2_0_0: flow_9_2_0_0 - 1000 edge_9_2_0_0 <= 0
 inactive_no_flow_9_3_0_0: flow_9_3_0_0 - 1000 edge_9_3_0_0 <= 0
 inactive_no_flow_9_4_0_0: flow_9_4_0_0 - 1000 edge_9_4_0_0 <= 0
 inactive_no_flow_9_6_0_0: flow_9_6_0_0 - 1000 edge_9_6_0_0 <= 0
 inactive_no_flow_9_8_0_0: flow_9_8_0_0 - 1000 edge_9_8_0_0 <= 0
 inactive_no_flow_9_11_0_0: flow_9_11_0_0 - 1000 edge_9_11_0_0 <= 0
 inactive_no_flow_9_13_0_0: flow_9_13_0_0 - 1000 edge_9_13_0_0 <= 0
 inactive_no_flow_9_14_0_0: flow_9_14_0_0 - 1000 edge_9_14_0_0 <= 0
 inactive_no_flow_9_16_0_0: flow_9_16_0_0 - 1000 edge_9_16_0_0 <= 0
 inactive_no_flow_9_17_0_0: flow_9_17_0_0 - 1000 edge_9_17_0_0 <= 0
 inactive_no_flow_9_18_0_0: flow_9_18_0_0 - 1000 edge_9_18_0_0 <= 0
 inactive_no_flow_9_24_0_0: flow_9_24_0_0 - 1000 edge_9_24_0_0 <= 0
 inactive_no_flow_9_27_0_0: flow_9_27_0_0 - 1000 edge_9_27_0_0 <= 0
 inactive_no_flow_11_2_0_0: flow_11_2_0_0 - 1000 edge_11_2_0_0 <= 0
 inactive_no_flow_11_3_0_0: flow_11_3_0_0 - 1000 edge_11_3_0_0 <= 0
 inactive_no_flow_11_4_0_0: flow_11_4_0_0 - 1000 edge_11_4_0_0 <= 0
 inactive_no_flow_11_6_0_0: flow_11_6_0_0 - 1000 edge_11_6_0_0 <= 0
 inactive_no_flow_11_8_0_0: flow_11_8_0_0 - 1000 edge_11_8_0_0 <= 0
 inactive_no_flow_11_9_0_0: flow_11_9_0_0 - 1000 edge_11_9_0_0 <= 0
 inactive_no_flow_11_13_0_0: flow_11_13_0_0 - 1000 edge_11_13_0_0 <= 0
 inactive_no_flow_11_14_0_0: flow_11_14_0_0 - 1000 edge_11_14_0_0 <= 0
 inactive_no_flow_11_16_0_0: flow_11_16_0_0 - 1000 edge_11_16_0_0 <= 0
 inactive_no_flow_11_17_0_0: flow_11_17_0_0 - 1000 edge_11_17_0_0 <= 0
 inactive_no_flow_11_22_0_0: flow_11_22_0_0 - 1000 edge_11_22_0_0 <= 0
 inactive_no_flow_11_23_0_0: flow_11_23_0_0 - 1000 edge_11_23_0_0 <= 0
 inactive_no_flow_11_24_0_0: flow_11_24_0_0 - 1000 edge_11_24_0_0 <= 0
 inactive_no_flow_11_27_0_0: flow_11_27_0_0 - 1000 edge_11_27_0_0 <= 0
 inactive_no_flow_13_2_0_0: flow_13_2_0_0 - 1000 edge_13_2_0_0 <= 0
 inactive_no_flow_13_3_0_0: flow_13_3_0_0 - 1000 edge_13_3_0_0 <= 0
 inactive_no_flow_13_4_0_0: flow_13_4_0_0 - 1000 edge_13_4_0_0 <= 0
 inactive_no_flow_13_8_0_0: flow_13_8_0_0 - 1000 edge_13_8_0_0 <= 0
 inactive_no_flow_13_9_0_0: flow_13_9_0_0 - 1000 edge_13_9_0_0 <= 0
 inactive_no_flow_13_11_0_0: flow_13_11_0_0 - 1000 edge_13_11_0_0 <= 0
 inactive_no_flow_13_14_0_0: flow_13_14_0_0 - 1000 edge_13_14_0_0 <= 0
 inactive_no_flow_13_16_0_0: flow_13_16_0_0 - 1000 edge_13_16_0_0 <= 0
 inactive_no_flow_13_23_0_0: flow_13_23_0_0 - 1000 edge_13_23_0_0 <= 0
 inactive_no_flow_13_24_0_0: flow_13_24_0_0 - 1000 edge_13_24_0_0 <= 0
 inactive_no_flow_13_27_0_0: flow_13_27_0_0 - 1000 edge_13_27_0_0 <= 0
 inactive_no_flow_14_3_0_0: flow_14_3_0_0 - 1000 edge_14_3_0_0 <= 0
 inactive_no_flow_14_13_0_0: flow_14_13_0_0 - 1000 edge_14_13_0_0 <= 0
 inactive_no_flow_16_6_0_0: flow_16_6_0_0 - 1000 edge_16_6_0_0 <= 0
 inactive_no_flow_17_2_0_0: flow_17_2_0_0 - 1000 edge_17_2_0_0 <= 0
 inactive_no_flow_17_4_0_0: flow_17_4_0_0 - 1000 edge_17_4_0_0 <= 0
 inactive_no_flow_17_6_0_0: flow_17_6_0_0 - 1000 edge_17_6_0_0 <= 0
 inactive_no_flow_17_9_0_0: flow_17_9_0_0 - 1000 edge_17_9_0_0 <= 0
 inactive_no_flow_17_11_0_0: flow_17_11_0_0 - 1000 edge_17_11_0_0 <= 0
 inactive_no_flow_17_14_0_0: flow_17_14_0_0 - 1000 edge_17_14_0_0 <= 0
 inactive_no_flow_17_16_0_0: flow_17_16_0_0 - 1000 edge_17_16_0_0 <= 0
 inactive_no_flow_17_18_0_0: flow_17_18_0_0 - 1000 edge_17_18_0_0 <= 0
 inactive_no_flow_17_22_0_0: flow_17_22_0_0 - 1000 edge_17_22_0_0 <= 0
 inactive_no_flow_17_23_0_0: flow_17_23_0_0 - 1000 edge_17_23_0_0 <= 0
 inactive_no_flow_17_24_0_0: flow_17_24_0_0 - 1000 edge_17_24_0_0 <= 0
 inactive_no_flow_17_25_0_0: flow_17_25_0_0 - 1000 edge_17_25_0_0 <= 0
 inactive_no_flow_17_26_0_0: flow_17_26_0_0 - 1000 edge_17_26_0_0 <= 0
 inactive_no_flow_17_27_0_0: flow_17_27_0_0 - 1000 edge_17_27_0_0 <= 0
 inactive_no_flow_18_17_0_0: flow_18_17_0_0 - 1000 edge_18_17_0_0 <= 0
 inactive_no_flow_18_22_0_0: flow_18_22_0_0 - 1000 edge_18_22_0_0 <= 0
 inactive_no_flow_22_17_0_0: flow_22_17_0_0 - 1000 edge_22_17_0_0 <= 0
 inactive_no_flow_22_18_0_0: flow_22_18_0_0 - 1000 edge_22_18_0_0 <= 0
 inactive_no_flow_22_23_0_0: flow_22_23_0_0 - 1000 edge_22_23_0_0 <= 0
 inactive_no_flow_22_25_0_0: flow_22_25_0_0 - 1000 edge_22_25_0_0 <= 0
 inactive_no_flow_22_26_0_0: flow_22_26_0_0 - 1000 edge_22_26_0_0 <= 0
 inactive_no_flow_23_2_0_0: flow_23_2_0_0 - 1000 edge_23_2_0_0 <= 0
 inactive_no_flow_23_4_0_0: flow_23_4_0_0 - 1000 edge_23_4_0_0 <= 0
 inactive_no_flow_23_6_0_0: flow_23_6_0_0 - 1000 edge_23_6_0_0 <= 0
 inactive_no_flow_23_16_0_0: flow_23_16_0_0 - 1000 edge_23_16_0_0 <= 0
 inactive_no_flow_23_17_0_0: flow_23_17_0_0 - 1000 edge_23_17_0_0 <= 0
 inactive_no_flow_23_18_0_0: flow_23_18_0_0 - 1000 edge_23_18_0_0 <= 0
 inactive_no_flow_23_22_0_0: flow_23_22_0_0 - 1000 edge_23_22_0_0 <= 0
 inactive_no_flow_23_24_0_0: flow_23_24_0_0 - 1000 edge_23_24_0_0 <= 0
 inactive_no_flow_23_25_0_0: flow_23_25_0_0 - 1000 edge_23_25_0_0 <= 0
 inactive_no_flow_23_26_0_0: flow_23_26_0_0 - 1000 edge_23_26_0_0 <= 0
 inactive_no_flow_23_27_0_0: flow_23_27_0_0 - 1000 edge_23_27_0_0 <= 0
 inactive_no_flow_24_2_0_0: flow_24_2_0_0 - 1000 edge_24_2_0_0 <= 0
 inactive_no_flow_24_3_0_0: flow_24_3_0_0 - 1000 edge_24_3_0_0 <= 0
 inactive_no_flow_24_4_0_0: flow_24_4_0_0 - 1000 edge_24_4_0_0 <= 0
 inactive_no_flow_24_6_0_0: flow_24_6_0_0 - 1000 edge_24_6_0_0 <= 0
 inactive_no_flow_24_8_0_0: flow_24_8_0_0 - 1000 edge_24_8_0_0 <= 0
 inactive_no_flow_24_9_0_0: flow_24_9_0_0 - 1000 edge_24_9_0_0 <= 0
 inactive_no_flow_24_11_0_0: flow_24_11_0_0 - 1000 edge_24_11_0_0 <= 0
 inactive_no_flow_24_13_0_0: flow_24_13_0_0 - 1000 edge_24_13_0_0 <= 0
 inactive_no_flow_24_14_0_0: flow_24_14_0_0 - 1000 edge_24_14_0_0 <= 0
 inactive_no_flow_24_16_0_0: flow_24_16_0_0 - 1000 edge_24_16_0_0 <= 0
 inactive_no_flow_24_17_0_0: flow_24_17_0_0 - 1000 edge_24_17_0_0 <= 0
 inactive_no_flow_24_18_0_0: flow_24_18_0_0 - 1000 edge_24_18_0_0 <= 0
 inactive_no_flow_24_22_0_0: flow_24_22_0_0 - 1000 edge_24_22_0_0 <= 0
 inactive_no_flow_24_23_0_0: flow_24_23_0_0 - 1000 edge_24_23_0_0 <= 0
 inactive_no_flow_24_25_0_0: flow_24_25_0_0 - 1000 edge_24_25_0_0 <= 0
 inactive_no_flow_24_26_0_0: flow_24_26_0_0 - 1000 edge_24_26_0_0 <= 0
 inactive_no_flow_24_27_0_0: flow_24_27_0_0 - 1000 edge_24_27_0_0 <= 0
 inactive_no_flow_25_26_0_0: flow_25_26_0_0 - 1000 edge_25_26_0_0 <= 0
 inactive_no_flow_25_27_0_0: flow_25_27_0_0 - 1000 edge_25_27_0_0 <= 0
 inactive_no_flow_26_6_0_0: flow_26_6_0_0 - 1000 edge_26_6_0_0 <= 0
 inactive_no_flow_26_18_0_0: flow_26_18_0_0 - 1000 edge_26_18_0_0 <= 0
 inactive_no_flow_26_22_0_0: flow_26_22_0_0 - 1000 edge_26_22_0_0 <= 0
 inactive_no_flow_26_23_0_0: flow_26_23_0_0 - 1000 edge_26_23_0_0 <= 0
 inactive_no_flow_26_25_0_0: flow_26_25_0_0 - 1000 edge_26_25_0_0 <= 0
 inactive_no_flow_26_27_0_0: flow_26_27_0_0 - 1000 edge_26_27_0_0 <= 0
 inactive_no_flow_27_25_0_0: flow_27_25_0_0 - 1000 edge_27_25_0_0 <= 0
 inactive_no_flow_27_26_0_0: flow_27_26_0_0 - 1000 edge_27_26_0_0 <= 0
Bounds
Binaries
 edge_0_3_0_0 edge_0_8_0_0 edge_0_9_0_0 edge_0_11_0_0 edge_0_24_0_0
 edge_2_4_0_0 edge_2_6_0_0 edge_2_8_0_0 edge_2_11_0_0 edge_2_13_0_0
 edge_2_14_0_0 edge_2_16_0_0 edge_2_17_0_0 edge_2_18_0_0 edge_2_22_0_0
 edge_2_23_0_0 edge_2_24_0_0 edge_2_26_0_0 edge_3_2_0_0 edge_3_4_0_0
 edge_3_6_0_0 edge_3_8_0_0 edge_3_9_0_0 edge_3_11_0_0 edge_3_13_0_0
 edge_3_14_0_0 edge_3_16_0_0 edge_3_17_0_0 edge_3_18_0_0 edge_3_22_0_0
 edge_3_23_0_0 edge_3_24_0_0 edge_3_25_0_0 edge_3_26_0_0 edge_3_27_0_0
 edge_4_2_0_0 edge_6_2_0_0 edge_6_3_0_0 edge_6_4_0_0 edge_6_8_0_0
 edge_6_9_0_0 edge_6_11_0_0 edge_6_14_0_0 edge_6_16_0_0 edge_6_17_0_0
 edge_6_18_0_0 edge_6_24_0_0 edge_6_27_0_0 edge_8_3_0_0 edge_8_9_0_0
 edge_8_11_0_0 edge_8_13_0_0 edge_8_14_0_0 edge_9_2_0_0 edge_9_3_0_0
 edge_9_4_0_0 edge_9_6_0_0 edge_9_8_0_0 edge_9_11_0_0 edge_9_13_0_0
 edge_9_14_0_0 edge_9_16_0_0 edge_9_17_0_0 edge_9_18_0_0 edge_9_24_0_0
 edge_9_27_0_0 edge_11_2_0_0 edge_11_3_0_0 edge_11_4_0_0 edge_11_6_0_0
 edge_11_8_0_0 edge_11_9_0_0 edge_11_13_0_0 edge_11_14_0_0 edge_11_16_0_0
 edge_11_17_0_0 edge_11_22_0_0 edge_11_23_0_0 edge_11_24_0_0 edge_11_27_0_0
 edge_13_2_0_0 edge_13_3_0_0 edge_13_4_0_0 edge_13_8_0_0 edge_13_9_0_0
 edge_13_11_0_0 edge_13_14_0_0 edge_13_16_0_0 edge_13_23_0_0 edge_13_24_0_0
 edge_13_27_0_0 edge_14_3_0_0 edge_14_13_0_0 edge_16_6_0_0 edge_17_2_0_0
 edge_17_4_0_0 edge_17_6_0_0 edge_17_9_0_0 edge_17_11_0_0 edge_17_14_0_0
 edge_17_16_0_0 edge_17_18_0_0 edge_17_22_0_0 edge_17_23_0_0 edge_17_24_0_0
 edge_17_25_0_0 edge_17_26_0_0 edge_17_27_0_0 edge_18_17_0_0 edge_18_22_0_0
 edge_22_17_0_0 edge_22_18_0_0 edge_22_23_0_0 edge_22_25_0_0 edge_22_26_0_0
 edge_23_2_0_0 edge_23_4_0_0 edge_23_6_0_0 edge_23_16_0_0 edge_23_17_0_0
 edge_23_18_0_0 edge_23_22_0_0 edge_23_24_0_0 edge_23_25_0_0 edge_23_26_0_0
 edge_23_27_0_0 edge_24_2_0_0 edge_24_3_0_0 edge_24_4_0_0 edge_24_6_0_0
 edge_24_8_0_0 edge_24_9_0_0 edge_24_11_0_0 edge_24_13_0_0 edge_24_14_0_0
 edge_24_16_0_0 edge_24_17_0_0 edge_24_18_0_0 edge_24_22_0_0 edge_24_23_0_0
 edge_24_25_0_0 edge_24_26_0_0 edge_24_27_0_0 edge_25_26_0_0 edge_25_27_0_0
 edge_26_6_0_0 edge_26_18_0_0 edge_26_22_0_0 edge_26_23_0_0 edge_26_25_0_0
 edge_26_27_0_0 edge_27_25_0_0 edge_27_26_0_0
End
